p edge 440 2200
e 1 191
e 1 207
e 1 281
e 1 315
e 1 341
e 2 136
e 2 158
e 2 158
e 2 197
e 2 416
e 3 39
e 3 43
e 3 194
e 3 272
e 3 289
e 4 35
e 4 42
e 4 259
e 4 260
e 4 418
e 5 83
e 5 105
e 5 114
e 5 248
e 5 323
e 6 38
e 6 335
e 6 412
e 6 418
e 6 425
e 7 276
e 7 341
e 7 359
e 7 379
e 7 395
e 8 58
e 8 65
e 8 108
e 8 234
e 8 368
e 9 26
e 9 27
e 9 51
e 9 247
e 9 255
e 10 22
e 10 94
e 10 231
e 10 336
e 10 383
e 11 136
e 11 137
e 11 137
e 11 167
e 11 330
e 12 97
e 12 114
e 12 329
e 12 364
e 12 397
e 13 189
e 13 219
e 13 356
e 13 408
e 13 435
e 14 66
e 14 91
e 14 235
e 14 252
e 14 333
e 15 92
e 15 135
e 15 304
e 15 342
e 15 367
e 16 136
e 16 186
e 16 321
e 16 368
e 16 394
e 17 99
e 17 132
e 17 145
e 17 277
e 17 335
e 18 28
e 18 194
e 18 219
e 18 260
e 18 390
e 19 43
e 19 196
e 19 238
e 19 278
e 19 355
e 20 181
e 20 353
e 20 399
e 20 410
e 20 439
e 21 66
e 21 101
e 21 193
e 21 366
e 21 399
e 22 48
e 22 55
e 22 168
e 22 362
e 22 389
e 23 20
e 23 225
e 23 235
e 23 246
e 23 382
e 24 177
e 24 198
e 24 279
e 24 304
e 24 340
e 25 32
e 25 135
e 25 186
e 25 211
e 25 413
e 26 34
e 26 116
e 26 237
e 26 318
e 26 405
e 27 59
e 27 158
e 27 311
e 27 319
e 27 349
e 28 64
e 28 169
e 28 224
e 28 308
e 28 374
e 29 36
e 29 83
e 29 219
e 29 246
e 29 332
e 30 183
e 30 219
e 30 358
e 30 405
e 30 414
e 31 204
e 31 312
e 31 335
e 31 341
e 31 417
e 32 60
e 32 114
e 32 303
e 32 317
e 32 426
e 33 149
e 33 253
e 33 270
e 33 299
e 33 385
e 34 142
e 34 160
e 34 263
e 34 385
e 34 418
e 35 1
e 35 70
e 35 122
e 35 255
e 35 352
e 36 55
e 36 233
e 36 376
e 36 411
e 36 424
e 37 38
e 37 98
e 37 163
e 37 206
e 37 247
e 38 94
e 38 100
e 38 114
e 38 155
e 38 214
e 39 62
e 39 77
e 39 105
e 39 318
e 39 405
e 40 128
e 40 316
e 40 319
e 40 419
e 40 431
e 41 18
e 41 72
e 41 264
e 41 289
e 41 297
e 42 117
e 42 202
e 42 207
e 42 272
e 42 393
e 43 28
e 43 126
e 43 137
e 43 202
e 43 329
e 44 10
e 44 95
e 44 170
e 44 259
e 44 260
e 45 119
e 45 176
e 45 193
e 45 324
e 45 406
e 46 64
e 46 228
e 46 232
e 46 276
e 46 417
e 47 72
e 47 94
e 47 190
e 47 261
e 47 320
e 48 122
e 48 195
e 48 199
e 48 251
e 48 251
e 49 38
e 49 74
e 49 155
e 49 203
e 49 271
e 50 32
e 50 190
e 50 192
e 50 362
e 50 385
e 51 233
e 51 341
e 51 364
e 51 370
e 51 402
e 52 51
e 52 56
e 52 62
e 52 151
e 52 400
e 53 78
e 53 214
e 53 332
e 53 379
e 53 386
e 54 15
e 54 21
e 54 156
e 54 362
e 54 429
e 55 87
e 55 91
e 55 159
e 55 281
e 55 308
e 56 53
e 56 214
e 56 292
e 56 416
e 56 437
e 57 10
e 57 130
e 57 267
e 57 279
e 57 333
e 58 41
e 58 180
e 58 203
e 58 261
e 58 394
e 59 162
e 59 164
e 59 186
e 59 372
e 59 399
e 60 43
e 60 223
e 60 291
e 60 327
e 60 389
e 61 48
e 61 168
e 61 242
e 61 252
e 61 272
e 62 240
e 62 284
e 62 292
e 62 408
e 62 411
e 63 86
e 63 107
e 63 185
e 63 206
e 63 320
e 64 139
e 64 181
e 64 203
e 64 295
e 64 423
e 65 129
e 65 136
e 65 191
e 65 267
e 65 308
e 66 214
e 66 281
e 66 296
e 66 339
e 66 398
e 67 2
e 67 42
e 67 142
e 67 284
e 67 297
e 68 28
e 68 52
e 68 75
e 68 256
e 68 376
e 69 35
e 69 39
e 69 57
e 69 279
e 69 283
e 70 48
e 70 176
e 70 230
e 70 322
e 70 397
e 71 57
e 71 79
e 71 144
e 71 382
e 71 408
e 72 85
e 72 256
e 72 258
e 72 324
e 72 386
e 73 220
e 73 226
e 73 270
e 73 376
e 73 405
e 74 82
e 74 196
e 74 245
e 74 275
e 74 282
e 75 103
e 75 204
e 75 246
e 75 334
e 75 416
e 76 149
e 76 155
e 76 178
e 76 255
e 76 290
e 77 40
e 77 145
e 77 278
e 77 357
e 77 374
e 78 33
e 78 92
e 78 214
e 78 361
e 78 421
e 79 59
e 79 145
e 79 314
e 79 328
e 79 328
e 80 74
e 80 143
e 80 242
e 80 364
e 80 421
e 81 128
e 81 149
e 81 207
e 81 344
e 81 382
e 82 11
e 82 216
e 82 251
e 82 315
e 82 409
e 83 14
e 83 14
e 83 243
e 83 269
e 83 343
e 84 57
e 84 162
e 84 201
e 84 270
e 84 286
e 85 67
e 85 78
e 85 286
e 85 309
e 85 321
e 86 66
e 86 199
e 86 269
e 86 381
e 86 418
e 87 36
e 87 44
e 87 125
e 87 330
e 87 393
e 88 116
e 88 177
e 88 316
e 88 367
e 88 405
e 89 7
e 89 19
e 89 98
e 89 270
e 89 285
e 90 127
e 90 127
e 90 198
e 90 421
e 90 434
e 91 100
e 91 140
e 91 262
e 91 309
e 91 357
e 92 13
e 92 81
e 92 90
e 92 221
e 92 243
e 93 67
e 93 123
e 93 204
e 93 217
e 93 263
e 94 44
e 94 123
e 94 184
e 94 188
e 94 232
e 95 140
e 95 168
e 95 244
e 95 273
e 95 308
e 96 56
e 96 230
e 96 309
e 96 386
e 96 388
e 97 98
e 97 100
e 97 118
e 97 325
e 97 389
e 98 75
e 98 82
e 98 244
e 98 334
e 98 354
e 99 65
e 99 202
e 99 215
e 99 227
e 99 316
e 100 20
e 100 29
e 100 275
e 100 282
e 100 422
e 101 45
e 101 151
e 101 200
e 101 239
e 101 396
e 102 50
e 102 189
e 102 228
e 102 279
e 102 339
e 103 68
e 103 193
e 103 202
e 103 248
e 103 323
e 104 100
e 104 135
e 104 271
e 104 275
e 104 381
e 105 28
e 105 83
e 105 160
e 105 350
e 105 393
e 106 83
e 106 153
e 106 209
e 106 286
e 106 309
e 107 22
e 107 100
e 107 199
e 107 227
e 107 369
e 108 92
e 108 202
e 108 250
e 108 333
e 108 382
e 109 64
e 109 113
e 109 138
e 109 199
e 109 200
e 110 13
e 110 69
e 110 78
e 110 97
e 110 325
e 111 72
e 111 81
e 111 229
e 111 402
e 111 420
e 112 213
e 112 226
e 112 308
e 112 355
e 112 363
e 113 26
e 113 122
e 113 157
e 113 179
e 113 417
e 114 67
e 114 176
e 114 260
e 114 312
e 114 426
e 115 56
e 115 166
e 115 267
e 115 375
e 115 433
e 116 17
e 116 70
e 116 194
e 116 257
e 116 259
e 117 34
e 117 36
e 117 269
e 117 369
e 117 397
e 118 56
e 118 70
e 118 94
e 118 236
e 118 365
e 119 17
e 119 298
e 119 307
e 119 326
e 119 392
e 120 89
e 120 178
e 120 230
e 120 373
e 120 437
e 121 47
e 121 63
e 121 68
e 121 201
e 121 266
e 122 41
e 122 231
e 122 238
e 122 267
e 122 395
e 123 144
e 123 230
e 123 307
e 123 371
e 123 424
e 124 29
e 124 71
e 124 89
e 124 392
e 124 403
e 125 33
e 125 69
e 125 145
e 125 255
e 125 256
e 126 11
e 126 182
e 126 201
e 126 325
e 126 337
e 127 144
e 127 158
e 127 266
e 127 369
e 127 402
e 128 67
e 128 70
e 128 88
e 128 291
e 128 373
e 129 25
e 129 54
e 129 133
e 129 281
e 129 332
e 130 65
e 130 71
e 130 111
e 130 254
e 130 361
e 131 84
e 131 172
e 131 206
e 131 351
e 131 368
e 132 157
e 132 189
e 132 240
e 132 294
e 132 438
e 133 26
e 133 137
e 133 218
e 133 253
e 133 384
e 134 31
e 134 36
e 134 225
e 134 296
e 134 345
e 135 8
e 135 11
e 135 94
e 135 150
e 135 440
e 136 26
e 136 70
e 136 74
e 136 118
e 136 264
e 137 158
e 137 246
e 137 259
e 137 268
e 137 398
e 138 28
e 138 82
e 138 213
e 138 310
e 138 393
e 139 9
e 139 102
e 139 276
e 139 385
e 139 412
e 140 2
e 140 75
e 140 159
e 140 331
e 140 411
e 141 28
e 141 171
e 141 178
e 141 260
e 141 418
e 142 2
e 142 76
e 142 215
e 142 311
e 142 402
e 143 9
e 143 56
e 143 76
e 143 201
e 143 235
e 144 30
e 144 81
e 144 297
e 144 352
e 144 391
e 145 21
e 145 102
e 145 111
e 145 123
e 145 218
e 146 11
e 146 76
e 146 145
e 146 201
e 146 290
e 147 42
e 147 172
e 147 351
e 147 382
e 147 398
e 148 20
e 148 37
e 148 138
e 148 164
e 148 400
e 149 65
e 149 104
e 149 135
e 149 139
e 149 197
e 150 136
e 150 141
e 150 159
e 150 297
e 150 414
e 151 16
e 151 158
e 151 243
e 151 366
e 151 368
e 152 32
e 152 108
e 152 154
e 152 189
e 152 376
e 153 38
e 153 86
e 153 174
e 153 197
e 153 311
e 154 83
e 154 112
e 154 200
e 154 231
e 154 386
e 155 9
e 155 106
e 155 124
e 155 146
e 155 188
e 156 82
e 156 149
e 156 165
e 156 288
e 156 299
e 157 73
e 157 134
e 157 208
e 157 214
e 157 270
e 158 66
e 158 134
e 158 278
e 158 308
e 158 383
e 159 26
e 159 80
e 159 80
e 159 385
e 159 433
e 160 265
e 160 268
e 160 270
e 160 285
e 160 385
e 161 34
e 161 138
e 161 234
e 161 356
e 161 422
e 162 25
e 162 236
e 162 244
e 162 298
e 162 316
e 163 56
e 163 152
e 163 197
e 163 211
e 163 389
e 164 151
e 164 265
e 164 284
e 164 299
e 164 356
e 165 45
e 165 49
e 165 265
e 165 281
e 165 432
e 166 11
e 166 50
e 166 254
e 166 346
e 166 391
e 167 129
e 167 188
e 167 285
e 167 333
e 167 429
e 168 33
e 168 66
e 168 108
e 168 115
e 168 259
e 169 11
e 169 41
e 169 246
e 169 326
e 169 340
e 170 5
e 170 39
e 170 183
e 170 284
e 170 379
e 171 52
e 171 146
e 171 190
e 171 327
e 171 384
e 172 47
e 172 62
e 172 198
e 172 360
e 172 408
e 173 54
e 173 77
e 173 111
e 173 312
e 173 400
e 174 122
e 174 125
e 174 161
e 174 170
e 174 172
e 175 2
e 175 53
e 175 130
e 175 158
e 175 309
e 176 109
e 176 119
e 176 128
e 176 354
e 176 394
e 177 13
e 177 27
e 177 106
e 177 281
e 177 347
e 178 65
e 178 101
e 178 220
e 178 319
e 178 438
e 179 44
e 179 109
e 179 115
e 179 143
e 179 271
e 180 122
e 180 173
e 180 235
e 180 318
e 180 356
e 181 51
e 181 177
e 181 233
e 181 341
e 181 345
e 182 47
e 182 178
e 182 346
e 182 370
e 182 393
e 183 99
e 183 215
e 183 216
e 183 347
e 183 394
e 184 55
e 184 220
e 184 280
e 184 369
e 184 436
e 185 88
e 185 126
e 185 210
e 185 343
e 185 386
e 186 20
e 186 46
e 186 234
e 186 242
e 186 275
e 187 2
e 187 130
e 187 197
e 187 356
e 187 429
e 188 31
e 188 85
e 188 302
e 188 318
e 188 371
e 189 96
e 189 108
e 189 110
e 189 195
e 189 359
e 190 63
e 190 142
e 190 165
e 190 168
e 190 204
e 191 92
e 191 94
e 191 147
e 191 304
e 191 393
e 192 215
e 192 242
e 192 321
e 192 366
e 192 374
e 193 23
e 193 42
e 193 76
e 193 203
e 193 319
e 194 61
e 194 86
e 194 190
e 194 317
e 194 319
e 195 14
e 195 62
e 195 75
e 195 93
e 195 385
e 196 80
e 196 164
e 196 175
e 196 246
e 196 393
e 197 214
e 197 276
e 197 302
e 197 412
e 197 434
e 198 125
e 198 156
e 198 265
e 198 311
e 198 402
e 199 217
e 199 249
e 199 250
e 199 260
e 199 420
e 200 183
e 200 203
e 200 212
e 200 334
e 200 337
e 201 100
e 201 244
e 201 288
e 201 289
e 201 389
e 202 78
e 202 304
e 202 316
e 202 319
e 202 323
e 203 19
e 203 218
e 203 260
e 203 322
e 203 393
e 204 56
e 204 57
e 204 93
e 204 270
e 204 271
e 205 64
e 205 72
e 205 148
e 205 202
e 205 258
e 206 2
e 206 185
e 206 257
e 206 329
e 206 413
e 207 5
e 207 218
e 207 267
e 207 367
e 207 374
e 208 152
e 208 191
e 208 313
e 208 341
e 208 421
e 209 190
e 209 224
e 209 240
e 209 262
e 209 440
e 210 29
e 210 37
e 210 65
e 210 179
e 210 318
e 211 39
e 211 254
e 211 350
e 211 373
e 211 423
e 212 30
e 212 58
e 212 117
e 212 271
e 212 309
e 213 10
e 213 101
e 213 122
e 213 127
e 213 162
e 214 130
e 214 251
e 214 286
e 214 303
e 214 336
e 215 190
e 215 290
e 215 315
e 215 348
e 215 369
e 216 40
e 216 65
e 216 140
e 216 342
e 216 415
e 217 13
e 217 30
e 217 53
e 217 254
e 217 366
e 218 65
e 218 66
e 218 83
e 218 359
e 218 394
e 219 15
e 219 31
e 219 255
e 219 284
e 219 416
e 220 89
e 220 124
e 220 313
e 220 362
e 220 401
e 221 235
e 221 364
e 221 400
e 221 402
e 221 414
e 222 76
e 222 233
e 222 260
e 222 260
e 222 411
e 223 134
e 223 161
e 223 174
e 223 384
e 223 423
e 224 149
e 224 163
e 224 198
e 224 214
e 224 404
e 225 43
e 225 74
e 225 213
e 225 344
e 225 419
e 226 180
e 226 194
e 226 263
e 226 410
e 226 429
e 227 37
e 227 152
e 227 243
e 227 362
e 227 392
e 228 25
e 228 39
e 228 62
e 228 78
e 228 184
e 229 4
e 229 35
e 229 157
e 229 259
e 229 403
e 230 29
e 230 47
e 230 113
e 230 128
e 230 374
e 231 67
e 231 355
e 231 378
e 231 416
e 231 440
e 232 63
e 232 289
e 232 290
e 232 344
e 232 366
e 233 27
e 233 59
e 233 116
e 233 193
e 233 288
e 234 178
e 234 210
e 234 256
e 234 314
e 234 373
e 235 58
e 235 121
e 235 129
e 235 136
e 235 408
e 236 154
e 236 182
e 236 182
e 236 326
e 236 368
e 237 6
e 237 84
e 237 124
e 237 170
e 237 440
e 238 163
e 238 351
e 238 363
e 238 373
e 238 439
e 239 126
e 239 205
e 239 288
e 239 363
e 239 417
e 240 38
e 240 39
e 240 136
e 240 191
e 240 415
e 241 18
e 241 168
e 241 217
e 241 320
e 241 345
e 242 42
e 242 82
e 242 149
e 242 186
e 242 273
e 243 132
e 243 177
e 243 211
e 243 315
e 243 421
e 244 8
e 244 76
e 244 215
e 244 242
e 244 351
e 245 38
e 245 147
e 245 214
e 245 233
e 245 252
e 246 34
e 246 222
e 246 295
e 246 297
e 246 400
e 247 21
e 247 108
e 247 135
e 247 271
e 247 321
e 248 58
e 248 140
e 248 223
e 248 261
e 248 322
e 249 45
e 249 274
e 249 317
e 249 376
e 249 392
e 250 115
e 250 126
e 250 134
e 250 374
e 250 418
e 251 48
e 251 141
e 251 174
e 251 275
e 251 306
e 252 6
e 252 80
e 252 186
e 252 188
e 252 382
e 253 130
e 253 131
e 253 142
e 253 152
e 253 243
e 254 160
e 254 393
e 254 406
e 254 424
e 254 428
e 255 6
e 255 117
e 255 267
e 255 309
e 255 426
e 256 43
e 256 195
e 256 243
e 256 295
e 256 406
e 257 12
e 257 29
e 257 130
e 257 162
e 257 162
e 258 61
e 258 107
e 258 199
e 258 428
e 258 440
e 259 34
e 259 128
e 259 204
e 259 257
e 259 413
e 260 64
e 260 209
e 260 222
e 260 338
e 260 371
e 261 18
e 261 60
e 261 72
e 261 195
e 261 440
e 262 6
e 262 160
e 262 268
e 262 384
e 262 389
e 263 26
e 263 63
e 263 215
e 263 268
e 263 297
e 264 22
e 264 79
e 264 93
e 264 333
e 264 339
e 265 54
e 265 152
e 265 205
e 265 277
e 265 393
e 266 92
e 266 146
e 266 382
e 266 404
e 266 410
e 267 21
e 267 149
e 267 153
e 267 220
e 267 298
e 268 66
e 268 79
e 268 131
e 268 290
e 268 368
e 269 196
e 269 233
e 269 290
e 269 339
e 269 386
e 270 58
e 270 103
e 270 128
e 270 181
e 270 355
e 271 211
e 271 261
e 271 342
e 271 395
e 271 396
e 272 52
e 272 53
e 272 288
e 272 395
e 272 417
e 273 4
e 273 229
e 273 249
e 273 258
e 273 280
e 274 26
e 274 95
e 274 248
e 274 343
e 274 373
e 275 81
e 275 200
e 275 311
e 275 330
e 275 360
e 276 160
e 276 258
e 276 266
e 276 336
e 276 417
e 277 17
e 277 58
e 277 235
e 277 355
e 277 355
e 278 239
e 278 296
e 278 343
e 278 421
e 278 438
e 279 60
e 279 193
e 279 194
e 279 250
e 279 315
e 280 105
e 280 217
e 280 226
e 280 366
e 280 397
e 281 26
e 281 81
e 281 145
e 281 176
e 281 366
e 282 90
e 282 207
e 282 298
e 282 353
e 282 368
e 283 103
e 283 127
e 283 135
e 283 395
e 283 400
e 284 119
e 284 329
e 284 364
e 284 369
e 284 430
e 285 158
e 285 165
e 285 185
e 285 187
e 285 426
e 286 13
e 286 67
e 286 73
e 286 281
e 286 376
e 287 33
e 287 102
e 287 200
e 287 262
e 287 382
e 288 89
e 288 142
e 288 307
e 288 388
e 288 416
e 289 1
e 289 67
e 289 77
e 289 240
e 289 275
e 290 78
e 290 80
e 290 166
e 290 206
e 290 339
e 291 5
e 291 21
e 291 126
e 291 161
e 291 368
e 292 101
e 292 244
e 292 357
e 292 386
e 292 429
e 293 74
e 293 174
e 293 225
e 293 238
e 293 305
e 294 14
e 294 60
e 294 86
e 294 274
e 294 372
e 295 9
e 295 199
e 295 313
e 295 331
e 295 411
e 296 3
e 296 118
e 296 340
e 296 386
e 296 430
e 297 99
e 297 149
e 297 178
e 297 194
e 297 416
e 298 27
e 298 31
e 298 241
e 298 360
e 298 384
e 299 45
e 299 111
e 299 116
e 299 220
e 299 440
e 300 13
e 300 27
e 300 140
e 300 203
e 300 216
e 301 5
e 301 50
e 301 186
e 301 253
e 301 380
e 302 88
e 302 112
e 302 137
e 302 261
e 302 352
e 303 2
e 303 161
e 303 230
e 303 231
e 303 262
e 304 144
e 304 177
e 304 275
e 304 278
e 304 427
e 305 32
e 305 164
e 305 171
e 305 271
e 305 297
e 306 103
e 306 138
e 306 147
e 306 259
e 306 328
e 307 164
e 307 298
e 307 301
e 307 374
e 307 438
e 308 24
e 308 140
e 308 150
e 308 176
e 308 314
e 309 7
e 309 154
e 309 211
e 309 241
e 309 342
e 310 64
e 310 95
e 310 162
e 310 274
e 310 406
e 311 52
e 311 217
e 311 255
e 311 281
e 311 393
e 312 180
e 312 191
e 312 245
e 312 267
e 312 360
e 313 199
e 313 242
e 313 355
e 313 428
e 313 430
e 314 100
e 314 238
e 314 334
e 314 363
e 314 401
e 315 195
e 315 275
e 315 387
e 315 397
e 315 431
e 316 106
e 316 220
e 316 301
e 316 411
e 316 414
e 317 27
e 317 142
e 317 154
e 317 363
e 317 416
e 318 70
e 318 189
e 318 226
e 318 293
e 318 426
e 319 37
e 319 101
e 319 203
e 319 274
e 319 285
e 320 132
e 320 176
e 320 263
e 320 352
e 320 433
e 321 212
e 321 364
e 321 373
e 321 375
e 321 404
e 322 32
e 322 172
e 322 271
e 322 298
e 322 410
e 323 105
e 323 140
e 323 316
e 323 366
e 323 398
e 324 95
e 324 121
e 324 230
e 324 368
e 324 388
e 325 157
e 325 257
e 325 291
e 325 363
e 325 415
e 326 9
e 326 71
e 326 145
e 326 190
e 326 428
e 327 5
e 327 176
e 327 325
e 327 333
e 327 350
e 328 87
e 328 168
e 328 230
e 328 267
e 328 351
e 329 100
e 329 306
e 329 321
e 329 402
e 329 437
e 330 120
e 330 151
e 330 275
e 330 283
e 330 422
e 331 150
e 331 255
e 331 379
e 331 396
e 331 396
e 332 19
e 332 44
e 332 300
e 332 343
e 332 390
e 333 8
e 333 21
e 333 168
e 333 266
e 333 346
e 334 14
e 334 122
e 334 176
e 334 249
e 334 350
e 335 50
e 335 85
e 335 191
e 335 310
e 335 332
e 336 100
e 336 144
e 336 217
e 336 287
e 336 435
e 337 24
e 337 28
e 337 68
e 337 117
e 337 310
e 338 3
e 338 174
e 338 252
e 338 348
e 338 391
e 339 42
e 339 183
e 339 207
e 339 382
e 339 428
e 340 50
e 340 109
e 340 112
e 340 132
e 340 195
e 341 15
e 341 86
e 341 139
e 341 359
e 341 362
e 342 48
e 342 114
e 342 141
e 342 250
e 342 372
e 343 11
e 343 279
e 343 284
e 343 419
e 343 421
e 344 134
e 344 141
e 344 262
e 344 349
e 344 376
e 345 40
e 345 40
e 345 157
e 345 245
e 345 378
e 346 29
e 346 248
e 346 266
e 346 291
e 346 330
e 347 12
e 347 209
e 347 211
e 347 325
e 347 341
e 348 29
e 348 143
e 348 261
e 348 267
e 348 405
e 349 39
e 349 185
e 349 281
e 349 281
e 349 288
e 350 41
e 350 117
e 350 157
e 350 324
e 350 428
e 351 150
e 351 158
e 351 249
e 351 314
e 351 407
e 352 7
e 352 93
e 352 123
e 352 206
e 352 212
e 353 50
e 353 163
e 353 204
e 353 251
e 353 430
e 354 9
e 354 33
e 354 61
e 354 232
e 354 253
e 355 72
e 355 155
e 355 173
e 355 202
e 355 328
e 356 28
e 356 271
e 356 309
e 356 366
e 356 387
e 357 156
e 357 212
e 357 305
e 357 358
e 357 398
e 358 1
e 358 40
e 358 94
e 358 296
e 358 434
e 359 157
e 359 280
e 359 300
e 359 307
e 359 310
e 360 26
e 360 51
e 360 114
e 360 221
e 360 340
e 361 14
e 361 76
e 361 104
e 361 163
e 361 323
e 362 47
e 362 251
e 362 266
e 362 383
e 362 439
e 363 14
e 363 184
e 363 201
e 363 293
e 363 352
e 364 1
e 364 9
e 364 52
e 364 91
e 364 379
e 365 49
e 365 54
e 365 118
e 365 302
e 365 360
e 366 83
e 366 111
e 366 152
e 366 206
e 366 367
e 367 75
e 367 155
e 367 232
e 367 362
e 367 418
e 368 54
e 368 63
e 368 96
e 368 125
e 368 188
e 369 115
e 369 138
e 369 157
e 369 297
e 369 385
e 370 265
e 370 268
e 370 328
e 370 356
e 370 372
e 371 11
e 371 53
e 371 175
e 371 176
e 371 296
e 372 215
e 372 266
e 372 280
e 372 304
e 372 310
e 373 45
e 373 134
e 373 212
e 373 421
e 373 439
e 374 92
e 374 221
e 374 250
e 374 294
e 374 356
e 375 204
e 375 223
e 375 324
e 375 368
e 375 377
e 376 140
e 376 189
e 376 285
e 376 297
e 376 341
e 377 167
e 377 364
e 377 382
e 377 388
e 377 421
e 378 185
e 378 191
e 378 237
e 378 319
e 378 432
e 379 40
e 379 145
e 379 194
e 379 202
e 379 416
e 380 36
e 380 136
e 380 261
e 380 343
e 380 365
e 381 32
e 381 127
e 381 141
e 381 180
e 381 306
e 382 37
e 382 59
e 382 116
e 382 176
e 382 276
e 383 118
e 383 145
e 383 284
e 383 319
e 383 398
e 384 48
e 384 269
e 384 292
e 384 371
e 384 395
e 385 28
e 385 89
e 385 98
e 385 176
e 385 215
e 386 118
e 386 119
e 386 212
e 386 319
e 386 428
e 387 6
e 387 252
e 387 258
e 387 306
e 387 415
e 388 1
e 388 91
e 388 110
e 388 341
e 388 418
e 389 9
e 389 141
e 389 165
e 389 179
e 389 197
e 390 25
e 390 28
e 390 93
e 390 237
e 390 320
e 391 89
e 391 92
e 391 138
e 391 343
e 391 433
e 392 46
e 392 83
e 392 139
e 392 274
e 392 380
e 393 74
e 393 307
e 393 318
e 393 323
e 393 424
e 394 1
e 394 14
e 394 52
e 394 84
e 394 89
e 395 19
e 395 224
e 395 237
e 395 358
e 395 416
e 396 156
e 396 167
e 396 238
e 396 258
e 396 436
e 397 64
e 397 90
e 397 334
e 397 385
e 397 437
e 398 38
e 398 53
e 398 88
e 398 118
e 398 255
e 399 31
e 399 58
e 399 126
e 399 128
e 399 143
e 400 110
e 400 210
e 400 217
e 400 235
e 400 348
e 401 25
e 401 92
e 401 139
e 401 225
e 401 370
e 402 77
e 402 219
e 402 244
e 402 383
e 402 403
e 403 113
e 403 146
e 403 168
e 403 246
e 403 260
e 404 111
e 404 115
e 404 127
e 404 344
e 404 405
e 405 143
e 405 191
e 405 206
e 405 208
e 405 323
e 406 132
e 406 288
e 406 289
e 406 397
e 406 430
e 407 162
e 407 234
e 407 259
e 407 346
e 407 409
e 408 180
e 408 189
e 408 216
e 408 253
e 408 397
e 409 214
e 409 223
e 409 227
e 409 326
e 409 423
e 410 2
e 410 93
e 410 147
e 410 157
e 410 421
e 411 147
e 411 261
e 411 324
e 411 353
e 411 353
e 412 39
e 412 84
e 412 150
e 412 206
e 412 440
e 413 83
e 413 240
e 413 242
e 413 291
e 413 381
e 414 89
e 414 124
e 414 214
e 414 344
e 414 399
e 415 65
e 415 107
e 415 111
e 415 146
e 415 185
e 416 59
e 416 76
e 416 173
e 416 245
e 416 299
e 417 39
e 417 59
e 417 224
e 417 238
e 417 437
e 418 131
e 418 225
e 418 254
e 418 305
e 418 371
e 419 129
e 419 189
e 419 192
e 419 195
e 419 340
e 420 34
e 420 105
e 420 326
e 420 386
e 420 427
e 421 57
e 421 95
e 421 387
e 421 408
e 421 429
e 422 2
e 422 79
e 422 145
e 422 290
e 422 334
e 423 66
e 423 112
e 423 230
e 423 305
e 423 383
e 424 75
e 424 153
e 424 239
e 424 297
e 424 411
e 425 47
e 425 131
e 425 194
e 425 223
e 425 324
e 426 61
e 426 88
e 426 162
e 426 329
e 426 428
e 427 181
e 427 236
e 427 327
e 427 375
e 427 404
e 428 66
e 428 144
e 428 378
e 428 390
e 428 434
e 429 36
e 429 56
e 429 186
e 429 200
e 429 432
e 430 20
e 430 37
e 430 57
e 430 90
e 430 231
e 431 36
e 431 103
e 431 166
e 431 169
e 431 341
e 432 169
e 432 196
e 432 263
e 432 291
e 432 349
e 433 45
e 433 107
e 433 132
e 433 326
e 433 392
e 434 119
e 434 230
e 434 326
e 434 387
e 434 435
e 435 12
e 435 62
e 435 158
e 435 273
e 435 410
e 436 60
e 436 101
e 436 188
e 436 296
e 436 301
e 437 85
e 437 115
e 437 137
e 437 280
e 437 315
e 438 46
e 438 133
e 438 171
e 438 173
e 438 427
e 439 51
e 439 81
e 439 116
e 439 327
e 439 341
e 440 55
e 440 97
e 440 100
e 440 181
e 440 387
